NAME : instances/diverse-tsp/instance-45.tsp
COMMENT : No Comment
TYPE : TSP
DIMENSION: 46
EDGE_WEIGHT_TYPE : EUC_2D
NODE_COORD_SECTION
1 1421 739 
2 35 1003 
3 215 1603 
4 416 496 
5 1339 1649 
6 1418 891 
7 857 674 
8 212 142 
9 198 787 
10 580 423 
11 596 761 
12 1381 1061 
13 1385 1007 
14 631 1212 
15 836 1295 
16 1091 1672 
17 30 81 
18 613 271 
19 1253 1807 
20 1294 213 
21 96 136 
22 286 920 
23 190 1536 
24 1310 1376 
25 1711 1123 
26 1333 1532 
27 607 549 
28 814 1188 
29 823 1481 
30 375 244 
31 1092 122 
32 1388 1412 
33 514 441 
34 219 1701 
35 1410 1944 
36 1674 1533 
37 333 1855 
38 212 590 
39 872 174 
40 53 1268 
41 975 1659 
42 1440 175 
43 136 1103 
44 356 228 
45 926 581 
46 1285 168 
EOF
